N = 44;
MinK = 6;
Capacity = 100;

X = array1d(0..44, [31, 11, 52, 81, 97, 71, 6, 48, 91, 49, 85, 11, 74, 56, 13, 66, 96, 36, 32, 6, 64, 87, 75, 40, 1, 60, 27, 15, 46, 28, 3, 1, 53, 98, 6, 7, 96, 2, 32, 95, 9, 96, 90, 33, 6]);
Y = array1d(0..44, [73, 67, 96, 29, 62, 5, 56, 50, 17, 68, 29, 16, 98, 37, 81, 80, 55, 17, 23, 13, 30, 5, 61, 72, 44, 95, 49, 33, 53, 43, 9, 100, 46, 8, 25, 81, 88, 35, 94, 94, 11, 16, 68, 31, 59]);

Demands = [19, 2, 12, 20, 6, 17, 8, 14, 2, 8, 5, 7, 22, 14, 17, 23, 15, 21, 2, 24, 10, 20, 6, 21, 10, 6, 13, 21, 24, 11, 16, 8, 11, 11, 22, 17, 22, 17, 8, 23, 5, 3, 18, 12];
